101 662
1 50 76 77 3 79 78 34 81 33 51 9 35 65 71 66 20 30 70 31 10 32 90 63 64 49 19 11 62 88 7 82 48 47 36 46 45 8 83 60 5 84 17 61 16 86 38 14 44 91 85 100 98 37 93 92 97 95 59 99 96 94 6 89 18 52 27 28 26 12 68 80 29 24 54 55 25 67 39 4 56 23 75 41 22 74 72 73 21 2 57 15 43 42 87 13 58 40 53 101 69 
